CapLotSizing_PM/src/Instancias/TCHSLT/6i6p2m/NBB00.OUT
 CG ITER, OVMR, OVMRUB =           1   16188.8027344   16188.7998047
 CG ITER, OVMR, OVMRUB =           2   16188.7998047   16188.7998047
 CG ITER, OVMR, OVMRUB =           3   16176.4541016   16188.7998047
 CG ITER, OVMR, OVMRUB =           4   14209.9580078   15385.9042969
 CG ITER, OVMR, OVMRUB =           5   13661.9199219   15385.9042969
 CG ITER, OVMR, OVMRUB =           6   13602.2187500   15385.9042969
 CG ITER, OVMR, OVMRUB =           7   13607.9814453   15385.9042969
 CG ITER, OVMR, OVMRUB =           8   13597.7187500   15385.9042969
 CG ITER, OVMR, OVMRUB =           9   13589.2421875   15385.9042969
 CG ITER, OVMR, OVMRUB =          10   13584.0859375   15385.9042969
 CG ITER, OVMR, OVMRUB =          11   13569.7919922   15385.9042969
 CG ITER, OVMR, OVMRUB =          12   13568.2529297   15385.9042969
 CG ITER, OVMR, OVMRUB =          13   13568.2529297   15385.9042969
OVLB =   13568.2529297 OVLUB =   15385.9042969 TIME =       0.3900000
